NAME 
ROWS
 N  OBJ
 L  R0      
 E  R1      
 E  R2      
 E  R3      
 E  R4      
 E  R5      
 E  R6      
 E  R7      
 E  R8      
 E  R9      
 E  R10     
 E  R11     
 E  R12     
 E  R13     
 E  R14     
 E  R15     
 E  R16     
 E  R17     
 E  R18     
 E  R19     
 E  R20     
 E  R21     
 E  R22     
 E  R23     
 E  R24     
 E  R25     
 E  R26     
 E  R27     
 E  R28     
 E  R29     
 E  R30     
COLUMNS
    MARKER    'MARKER'                 'INTORG'
    I0(3)     OBJ       109
    I0(3)     R0        -124
    I0(3)     R1        15
    I0(3)     R30       1
    I1(3)     OBJ       118
    I1(3)     R0        139
    I1(3)     R2        14
    I1(3)     R30       1
    I2(2)     OBJ       62
    I2(2)     R0        -53
    I2(2)     R30       1
    I3(3)     OBJ       -98
    I3(3)     R0        -43
    I3(3)     R4        -1
    I3(3)     R30       1
    I4(3)     OBJ       11
    I4(3)     R0        107
    I4(3)     R5        15
    I4(3)     R30       1
    I5(3)     OBJ       -123
    I5(3)     R0        -101
    I5(3)     R6        5
    I5(3)     R30       1
    I6(2)     OBJ       -40
    I6(2)     R0        137
    I6(2)     R30       1
    I7(3)     OBJ       154
    I7(3)     R0        -156
    I7(3)     R8        12
    I7(3)     R30       1
    I8(3)     OBJ       -17
    I8(3)     R0        -20
    I8(3)     R9        -1
    I8(3)     R30       1
    I9(3)     OBJ       -85
    I9(3)     R0        -88
    I9(3)     R10       -1
    I9(3)     R30       1
    I10(3)    OBJ       109
    I10(3)    R0        126
    I10(3)    R11       6
    I10(3)    R30       1
    I11(3)    OBJ       17
    I11(3)    R0        -32
    I11(3)    R12       14
    I11(3)    R30       1
    I12(3)    OBJ       -90
    I12(3)    R0        184
    I12(3)    R13       8
    I12(3)    R30       1
    I13(3)    OBJ       16
    I13(3)    R0        -122
    I13(3)    R14       16
    I13(3)    R30       1
    I14(3)    OBJ       -42
    I14(3)    R0        152
    I14(3)    R15       -1
    I14(3)    R30       1
    I15(3)    OBJ       199
    I15(3)    R0        -81
    I15(3)    R16       9
    I15(3)    R30       1
    I16(3)    OBJ       -49
    I16(3)    R0        19
    I16(3)    R17       4
    I16(3)    R30       1
    I17(3)    OBJ       30
    I17(3)    R0        -98
    I17(3)    R18       3
    I17(3)    R30       1
    I18(3)    OBJ       -25
    I18(3)    R0        135
    I18(3)    R19       10
    I18(3)    R30       1
    I19(3)    OBJ       19
    I19(3)    R0        108
    I19(3)    R20       16
    I19(3)    R30       1
    I20(3)    OBJ       -144
    I20(3)    R0        -44
    I20(3)    R21       7
    I20(3)    R30       1
    I21(3)    OBJ       -118
    I21(3)    R0        -60
    I21(3)    R22       5
    I21(3)    R30       1
    I22(3)    OBJ       103
    I22(3)    R0        168
    I22(3)    R23       5
    I22(3)    R30       1
    I23(3)    OBJ       173
    I23(3)    R0        -154
    I23(3)    R24       5
    I23(3)    R30       1
    I24(3)    OBJ       -188
    I24(3)    R0        96
    I24(3)    R25       10
    I24(3)    R30       1
    I25(3)    OBJ       103
    I25(3)    R0        36
    I25(3)    R26       1
    I25(3)    R30       1
    I26(3)    OBJ       -184
    I26(3)    R0        -14
    I26(3)    R27       12
    I26(3)    R30       1
    I27(3)    OBJ       50
    I27(3)    R0        107
    I27(3)    R28       13
    I27(3)    R30       1
    MARKER    'MARKER'                 'INTEND'
    C28(28)   OBJ       2
    C28(28)   R1        4
    C28(28)   R2        7
    C28(28)   R3        2
    C28(28)   R4        10
    C28(28)   R5        18
    C28(28)   R6        9
    C28(28)   R7        1
    C28(28)   R8        2
    C28(28)   R9        5
    C28(28)   R10       2
    C28(28)   R11       15
    C28(28)   R12       12
    C28(28)   R13       9
    C28(28)   R14       10
    C28(28)   R15       5
    C28(28)   R16       4
    C28(28)   R17       8
    C28(28)   R18       8
    C28(28)   R19       10
    C28(28)   R20       12
    C28(28)   R21       3
    C28(28)   R22       13
    C28(28)   R23       16
    C28(28)   R24       17
    C28(28)   R25       6
    C28(28)   R26       17
    C28(28)   R27       15
    C28(28)   R29       7
    C29(28)   OBJ       8
    C29(28)   R0        -4
    C29(28)   R1        12
    C29(28)   R2        8
    C29(28)   R3        5
    C29(28)   R4        5
    C29(28)   R5        5
    C29(28)   R6        6
    C29(28)   R7        -1
    C29(28)   R8        -1
    C29(28)   R9        3
    C29(28)   R10       5
    C29(28)   R11       3
    C29(28)   R12       6
    C29(28)   R13       13
    C29(28)   R14       6
    C29(28)   R15       8
    C29(28)   R16       18
    C29(28)   R17       15
    C29(28)   R18       5
    C29(28)   R20       4
    C29(28)   R21       3
    C29(28)   R22       12
    C29(28)   R23       11
    C29(28)   R25       9
    C29(28)   R26       17
    C29(28)   R27       16
    C29(28)   R28       8
    C29(28)   R29       8
    C30(1)    R1        1
    C31(1)    R2        1
    C32(1)    R3        1
    C33(1)    R4        1
    C34(1)    R5        1
    C35(1)    R6        1
    C36(1)    R7        1
    C37(1)    R8        1
    C38(1)    R9        1
    C39(1)    R10       1
    C40(1)    R11       1
    C41(1)    R12       1
    C42(1)    R13       1
    C43(1)    R14       1
    C44(1)    R15       1
    C45(1)    R16       1
    C46(1)    R17       1
    C47(1)    R18       1
    C48(1)    R19       1
    C49(1)    R20       1
    C50(1)    R21       1
    C51(1)    R22       1
    C52(1)    R23       1
    C53(1)    R24       1
    C54(1)    R25       1
    C55(1)    R26       1
    C56(1)    R27       1
    C57(1)    R28       1
    C58(1)    R29       1
    C59(1)    R30       1
RHS
    RHS1      R0        -51
    RHS1      R1        56
    RHS1      R2        59
    RHS1      R3        82
    RHS1      R4        55
    RHS1      R5        91
    RHS1      R6        53
    RHS1      R7        82
    RHS1      R8        83
    RHS1      R9        90
    RHS1      R10       70
    RHS1      R11       85
    RHS1      R12       76
    RHS1      R13       68
    RHS1      R14       51
    RHS1      R15       65
    RHS1      R16       64
    RHS1      R17       51
    RHS1      R18       93
    RHS1      R19       62
    RHS1      R20       60
    RHS1      R21       82
    RHS1      R22       69
    RHS1      R23       80
    RHS1      R24       62
    RHS1      R25       53
    RHS1      R26       72
    RHS1      R27       83
    RHS1      R28       83
    RHS1      R29       94
    RHS1      R30       9
BOUNDS
 UP BND1      I0(3)     1
 UP BND1      I1(3)     1
 UP BND1      I2(2)     1
 UP BND1      I3(3)     1
 UP BND1      I4(3)     1
 UP BND1      I5(3)     1
 UP BND1      I6(2)     1
 UP BND1      I7(3)     1
 UP BND1      I8(3)     1
 UP BND1      I9(3)     1
 UP BND1      I10(3)    1
 UP BND1      I11(3)    1
 UP BND1      I12(3)    1
 UP BND1      I13(3)    1
 UP BND1      I14(3)    1
 UP BND1      I15(3)    1
 UP BND1      I16(3)    1
 UP BND1      I17(3)    1
 UP BND1      I18(3)    1
 UP BND1      I19(3)    1
 UP BND1      I20(3)    1
 UP BND1      I21(3)    1
 UP BND1      I22(3)    1
 UP BND1      I23(3)    1
 UP BND1      I24(3)    1
 UP BND1      I25(3)    1
 UP BND1      I26(3)    1
 UP BND1      I27(3)    1
ENDATA
